solution status: optimal solution found
objective value:                                    2
C2882                                               1 	(obj:0)
C0012                                               1 	(obj:0)
C0030                                               1 	(obj:0)
C0045                                               1 	(obj:0)
C0076                                               1 	(obj:0)
C0102                                               1 	(obj:0)
C0158                                               1 	(obj:0)
C0166                                               1 	(obj:0)
C0195                                               1 	(obj:0)
C0228                                               1 	(obj:0)
C0233                                               1 	(obj:0)
C0237                                               1 	(obj:0)
C0240                                               1 	(obj:0)
C0261                                               1 	(obj:0)
C0283                                               1 	(obj:0)
C0302                                               1 	(obj:0)
C0315                                               1 	(obj:0)
C0325                                               1 	(obj:0)
C0369                                               1 	(obj:0)
C0418                                               1 	(obj:0)
C0436                                               1 	(obj:0)
C0468                                               1 	(obj:0)
C0471                                               1 	(obj:0)
C0473                                               1 	(obj:0)
C0480                                               1 	(obj:0)
C0499                                               1 	(obj:0)
C0504                                               1 	(obj:0)
C0536                                               1 	(obj:0)
C0562                                               1 	(obj:0)
C0573                                               1 	(obj:0)
C0598                                               1 	(obj:0)
C0631                                               1 	(obj:0)
C0689                                               1 	(obj:0)
C0708                                               1 	(obj:0)
C0714                                               1 	(obj:0)
C0717                                               1 	(obj:0)
C0721                                               1 	(obj:0)
C0734                                               1 	(obj:0)
C0747                                               1 	(obj:0)
C0780                                               1 	(obj:0)
C0801                                               1 	(obj:0)
C0823                                               1 	(obj:0)
C0855                                               1 	(obj:0)
C0864                                               1 	(obj:0)
C0910                                               1 	(obj:0)
C0926                                               1 	(obj:0)
C0948                                               1 	(obj:0)
C0951                                               1 	(obj:0)
C0953                                               1 	(obj:0)
C0959                                               1 	(obj:0)
C0983                                               1 	(obj:0)
C0994                                               1 	(obj:0)
C1006                                               1 	(obj:0)
C1038                                               1 	(obj:0)
C1049                                               1 	(obj:0)
C1130                                               1 	(obj:0)
C1171                                               1 	(obj:0)
C1185                                               1 	(obj:0)
C1187                                               1 	(obj:0)
C1193                                               1 	(obj:0)
C1199                                               1 	(obj:0)
C1211                                               1 	(obj:0)
C1239                                               1 	(obj:0)
C1247                                               1 	(obj:0)
C1277                                               1 	(obj:0)
C1300                                               1 	(obj:0)
C1304                                               1 	(obj:0)
C1354                                               1 	(obj:0)
C1386                                               1 	(obj:0)
C1415                                               1 	(obj:0)
C1428                                               1 	(obj:0)
C1430                                               1 	(obj:0)
C1436                                               1 	(obj:0)
C1441                                               1 	(obj:0)
C1449                                               1 	(obj:0)
C1466                                               1 	(obj:0)
C1512                                               1 	(obj:0)
C1537                                               1 	(obj:0)
C1570                                               1 	(obj:0)
C1585                                               1 	(obj:0)
C1616                                               1 	(obj:0)
C1641                                               1 	(obj:0)
C1660                                               1 	(obj:0)
C1667                                    1.0000000003 	(obj:0)
C1671                                               1 	(obj:0)
C1673                                               1 	(obj:0)
C1679                                               1 	(obj:0)
C1687                                               1 	(obj:0)
C1732                                               1 	(obj:0)
C1764                                               1 	(obj:0)
C1798                                               1 	(obj:0)
C1822                                               1 	(obj:0)
C1826                                               1 	(obj:0)
C1861                                    1.0000000003 	(obj:0)
C1871                                               1 	(obj:0)
C1903                                               1 	(obj:0)
C1905                                               1 	(obj:0)
C1913                                               1 	(obj:0)
C1917                                               1 	(obj:0)
C1919                                               1 	(obj:0)
C1957                                               1 	(obj:0)
C2008                                               1 	(obj:0)
C2055                                               1 	(obj:0)
C2080                                    1.0000000003 	(obj:0)
C2093                                    1.0000000003 	(obj:0)
C2123                                               1 	(obj:0)
C2141                                    1.0000000006 	(obj:0)
C2147                                    1.0000000006 	(obj:0)
C2150                                               1 	(obj:0)
C2156                                               1 	(obj:0)
C2162                                    1.0000000003 	(obj:0)
C2215                                               1 	(obj:0)
C2229                                               1 	(obj:0)
C2272                                               1 	(obj:0)
C2303                                    1.0000000003 	(obj:0)
C2314                                               1 	(obj:0)
C2339                                               1 	(obj:0)
C2344                                    1.0000000003 	(obj:0)
C2367                                    1.0000000003 	(obj:0)
C2388                                               1 	(obj:0)
C2391                                               1 	(obj:0)
C2397                                               1 	(obj:0)
C2402                                    1.0000000003 	(obj:0)
C2445                                               1 	(obj:0)
C2492                                               1 	(obj:0)
C2534                                               1 	(obj:0)
C2548                                               1 	(obj:0)
C2569                                               1 	(obj:0)
C2600                                    1.0000000003 	(obj:0)
C2613                                    1.0000000006 	(obj:0)
C2627                                    1.0000000003 	(obj:0)
C2637                                               1 	(obj:0)
C2639                                    1.0000000003 	(obj:0)
C2642                                               1 	(obj:0)
C2644                                               1 	(obj:0)
C2670                                               1 	(obj:0)
C2768                                               1 	(obj:0)
C2796                                               1 	(obj:0)
C2812                                    1.0000000003 	(obj:0)
C2825                                    1.0000000003 	(obj:0)
C2858                                               1 	(obj:0)
C2874                                               1 	(obj:0)
C2877                                               1 	(obj:0)
C2879                                    1.0000000003 	(obj:0)
C0001                                               2 	(obj:1)
